p edge 42 115
e 4 24
e 4 25
e 24 25
e 26 27
e 21 24
e 21 25
e 21 28
e 24 28
e 25 28
e 34 37
e 34 39
e 37 39
e 3 42
e 3 38
e 31 39
e 26 31
e 26 34
e 31 34
e 27 39
e 27 34
e 2 38
e 15 38
e 15 39
e 38 39
e 5 13
e 5 15
e 13 15
e 9 16
e 7 30
e 13 32
e 5 7
e 7 13
e 16 34
e 32 33
e 1 14
e 1 29
e 1 31
e 14 29
e 14 31
e 29 31
e 8 15
e 8 16
e 8 37
e 8 39
e 15 16
e 15 37
e 16 37
e 16 39
e 2 8
e 2 9
e 2 15
e 2 16
e 2 39
e 8 9
e 9 15
e 9 39
e 26 39
e 26 40
e 27 29
e 27 31
e 29 34
e 29 39
e 20 29
e 20 30
e 20 31
e 29 30
e 30 31
e 11 36
e 11 12
e 11 25
e 12 25
e 12 36
e 25 36
e 24 38
e 25 38
e 28 38
e 19 21
e 19 36
e 21 36
e 37 41
e 20 23
e 23 30
e 35 36
e 6 22
e 12 19
e 12 21
e 11 19
e 11 38
e 12 38
e 19 25
e 19 38
e 36 38
e 12 24
e 12 28
e 18 35
e 6 35
e 6 36
e 22 35
e 22 36
e 35 40
e 22 29
e 17 23
e 17 36
e 17 37
e 23 36
e 23 37
e 36 37
e 23 40
e 10 35
e 10 37
e 35 37
e 10 17
e 10 23
e 10 40
e 17 40
